(declare-const term_to_project_onto1 Real)
(declare-const term_to_project_onto Real)
(declare-const term_to_project_onto0 Real)
(assert (exists
         ((|idx_in'?1| Int) (|i'?2| Int) (|c'?3| Int) (tr?4 Int) (c?5 Int)
            (idx_in?6 Int) (i?7 Int))
         (and (<= (- idx_in?6) 0) (<= (+ (- c?5) 48) 0) (<= (+ c?5 -57) 0)
                (= (+ |idx_in'?1| (- idx_in?6) -1) 0)
                (= (+ (* -10 i?7) |i'?2| (- c?5) 48) 0)
                (= (+ (- tr?4) |c'?3|) 0)
                (= term_to_project_onto1 (+ |c'?3| (- c?5)))
                (= term_to_project_onto0 (+ |i'?2| (- i?7)))
                (= term_to_project_onto (+ |idx_in'?1| (- idx_in?6))))))
(check-sat)
